1621944
61 12 10412
12 1 10465
1 47 14424
47 4 12782
4 48 7248
48 2 7938
2 65 19463
65 20 13332
20 13 13038
13 54 13536
54 19 26950
19 49 8895
49 23 4353
23 6 16175
6 64 32039
64 11 35955
11 66 13370
66 26 57991
26 55 61621
55 34 20835
34 46 36286
46 43 69394
43 7 52950
7 67 19183
67 38 15200
38 41 39159
41 30 5056
30 25 1249
25 29 9940
29 60 6419
60 5 7979
5 40 3130
40 56 3489
56 32 1427
32 42 5759
42 3 13084
3 21 17216
21 31 77515
31 22 39447
22 52 46274
52 33 101509
33 57 88918
57 18 27906
18 10 28652
10 14 62052
14 44 62420
44 28 76431
28 50 10810
50 53 48925
53 37 6554
37 62 30446
62 39 8740
39 51 11004
51 35 8926
35 68 19070
68 45 50028
45 27 8214
27 17 1445
17 9 5356
9 58 1777
58 15 6904
15 8 6874
8 36 11459
36 59 8563
59 16 10880
16 63 14689
63 24 26977
24 61 5437
